Maximize
  2.6299378340889282e-04 Z_29_0_0 + 0.00200902648631577 Z_29_0_1
   + 0.6737660179573952 Z_29_0_2 + 0.00227178306027854 Z_29_0_3
   + 0.2216901787126016 Z_29_0_4
Subject To
 constraint1_290: Z_29_0_0 + Z_29_0_1 + Z_29_0_2 + Z_29_0_3 + Z_29_0_4
   <= 1
 constraint2_290: Z_29_0_0 <= 1
 constraint2_291: Z_29_0_1 <= 1
 constraint2_292: Z_29_0_2 <= 1
 constraint2_293: Z_29_0_3 <= 1
 constraint2_5500: <= 1
 constraint2_5501: <= 1
 constraint2_5502: <= 1
 constraint2_5503: <= 1
Bounds
Binaries
 Z_29_0_0 Z_29_0_1 Z_29_0_2 Z_29_0_3 Z_29_0_4
End
